% Generated by MiniZinc 2.9.3
% Solver library: /home/void/Workspace-Research/Code/fzn-minicpp/minizinc
% Command line invocation: minizinc --solver org.minicpp.ml --compile --no-output-ozn bpp-sat.mzn dzn/Falkenauer_t60_02.dzn -D n_bins=20 -o fzn-sat/Falkenauer_t60_02.fzn 

predicate minicpp_bin_packing_load(array [int] of var int: l,array [int] of var int: bin,array [int] of int: w);
array [1..60] of int: weights = [498,498,494,482,482,479,476,464,459,436,430,429,401,400,398,390,378,369,367,362,354,352,350,350,345,339,328,326,308,305,288,288,284,281,280,279,277,276,271,268,267,267,267,266,263,262,261,261,260,260,259,256,254,252,252,251,251,250,250,250];
var 1..20: X_INTRODUCED_16_;
var 1..20: X_INTRODUCED_17_;
var 1..20: X_INTRODUCED_18_;
var 1..20: X_INTRODUCED_19_;
var 1..20: X_INTRODUCED_20_;
var 1..20: X_INTRODUCED_21_;
var 1..20: X_INTRODUCED_22_;
var 1..20: X_INTRODUCED_23_;
var 1..20: X_INTRODUCED_24_;
var 1..20: X_INTRODUCED_25_;
var 1..20: X_INTRODUCED_26_;
var 1..20: X_INTRODUCED_27_;
var 1..20: X_INTRODUCED_28_;
var 1..20: X_INTRODUCED_29_;
var 1..20: X_INTRODUCED_30_;
var 1..20: X_INTRODUCED_31_;
var 1..20: X_INTRODUCED_32_;
var 1..20: X_INTRODUCED_33_;
var 1..20: X_INTRODUCED_34_;
var 1..20: X_INTRODUCED_35_;
var 1..20: X_INTRODUCED_36_;
var 1..20: X_INTRODUCED_37_;
var 1..20: X_INTRODUCED_38_;
var 1..20: X_INTRODUCED_39_;
var 1..20: X_INTRODUCED_40_;
var 1..20: X_INTRODUCED_41_;
var 1..20: X_INTRODUCED_42_;
var 1..20: X_INTRODUCED_43_;
var 1..20: X_INTRODUCED_44_;
var 1..20: X_INTRODUCED_45_;
var 1..20: X_INTRODUCED_46_;
var 1..20: X_INTRODUCED_47_;
var 1..20: X_INTRODUCED_48_;
var 1..20: X_INTRODUCED_49_;
var 1..20: X_INTRODUCED_50_;
var 1..20: X_INTRODUCED_51_;
var 1..20: X_INTRODUCED_52_;
var 1..20: X_INTRODUCED_53_;
var 1..20: X_INTRODUCED_54_;
var 1..20: X_INTRODUCED_55_;
var 1..20: X_INTRODUCED_56_;
var 1..20: X_INTRODUCED_57_;
var 1..20: X_INTRODUCED_58_;
var 1..20: X_INTRODUCED_59_;
var 1..20: X_INTRODUCED_60_;
var 1..20: X_INTRODUCED_61_;
var 1..20: X_INTRODUCED_62_;
var 1..20: X_INTRODUCED_63_;
var 1..20: X_INTRODUCED_64_;
var 1..20: X_INTRODUCED_65_;
var 1..20: X_INTRODUCED_66_;
var 1..20: X_INTRODUCED_67_;
var 1..20: X_INTRODUCED_68_;
var 1..20: X_INTRODUCED_69_;
var 1..20: X_INTRODUCED_70_;
var 1..20: X_INTRODUCED_71_;
var 1..20: X_INTRODUCED_72_;
var 1..20: X_INTRODUCED_73_;
var 1..20: X_INTRODUCED_74_;
var 1..20: X_INTRODUCED_75_;
var 0..1000: X_INTRODUCED_78_ ::var_is_introduced ;
var 0..1000: X_INTRODUCED_79_ ::var_is_introduced ;
var 0..1000: X_INTRODUCED_80_ ::var_is_introduced ;
var 0..1000: X_INTRODUCED_81_ ::var_is_introduced ;
var 0..1000: X_INTRODUCED_82_ ::var_is_introduced ;
var 0..1000: X_INTRODUCED_83_ ::var_is_introduced ;
var 0..1000: X_INTRODUCED_84_ ::var_is_introduced ;
var 0..1000: X_INTRODUCED_85_ ::var_is_introduced ;
var 0..1000: X_INTRODUCED_86_ ::var_is_introduced ;
var 0..1000: X_INTRODUCED_87_ ::var_is_introduced ;
var 0..1000: X_INTRODUCED_88_ ::var_is_introduced ;
var 0..1000: X_INTRODUCED_89_ ::var_is_introduced ;
var 0..1000: X_INTRODUCED_90_ ::var_is_introduced ;
var 0..1000: X_INTRODUCED_91_ ::var_is_introduced ;
var 0..1000: X_INTRODUCED_92_ ::var_is_introduced ;
var 0..1000: X_INTRODUCED_93_ ::var_is_introduced ;
var 0..1000: X_INTRODUCED_94_ ::var_is_introduced ;
var 0..1000: X_INTRODUCED_95_ ::var_is_introduced ;
var 0..1000: X_INTRODUCED_96_ ::var_is_introduced ;
var 0..1000: X_INTRODUCED_97_ ::var_is_introduced ;
array [1..60] of var int: items_bin:: output_array([1..60]) = [X_INTRODUCED_16_,X_INTRODUCED_17_,X_INTRODUCED_18_,X_INTRODUCED_19_,X_INTRODUCED_20_,X_INTRODUCED_21_,X_INTRODUCED_22_,X_INTRODUCED_23_,X_INTRODUCED_24_,X_INTRODUCED_25_,X_INTRODUCED_26_,X_INTRODUCED_27_,X_INTRODUCED_28_,X_INTRODUCED_29_,X_INTRODUCED_30_,X_INTRODUCED_31_,X_INTRODUCED_32_,X_INTRODUCED_33_,X_INTRODUCED_34_,X_INTRODUCED_35_,X_INTRODUCED_36_,X_INTRODUCED_37_,X_INTRODUCED_38_,X_INTRODUCED_39_,X_INTRODUCED_40_,X_INTRODUCED_41_,X_INTRODUCED_42_,X_INTRODUCED_43_,X_INTRODUCED_44_,X_INTRODUCED_45_,X_INTRODUCED_46_,X_INTRODUCED_47_,X_INTRODUCED_48_,X_INTRODUCED_49_,X_INTRODUCED_50_,X_INTRODUCED_51_,X_INTRODUCED_52_,X_INTRODUCED_53_,X_INTRODUCED_54_,X_INTRODUCED_55_,X_INTRODUCED_56_,X_INTRODUCED_57_,X_INTRODUCED_58_,X_INTRODUCED_59_,X_INTRODUCED_60_,X_INTRODUCED_61_,X_INTRODUCED_62_,X_INTRODUCED_63_,X_INTRODUCED_64_,X_INTRODUCED_65_,X_INTRODUCED_66_,X_INTRODUCED_67_,X_INTRODUCED_68_,X_INTRODUCED_69_,X_INTRODUCED_70_,X_INTRODUCED_71_,X_INTRODUCED_72_,X_INTRODUCED_73_,X_INTRODUCED_74_,X_INTRODUCED_75_];
array [1..20] of var int: X_INTRODUCED_77_ ::var_is_introduced  = [X_INTRODUCED_78_,X_INTRODUCED_79_,X_INTRODUCED_80_,X_INTRODUCED_81_,X_INTRODUCED_82_,X_INTRODUCED_83_,X_INTRODUCED_84_,X_INTRODUCED_85_,X_INTRODUCED_86_,X_INTRODUCED_87_,X_INTRODUCED_88_,X_INTRODUCED_89_,X_INTRODUCED_90_,X_INTRODUCED_91_,X_INTRODUCED_92_,X_INTRODUCED_93_,X_INTRODUCED_94_,X_INTRODUCED_95_,X_INTRODUCED_96_,X_INTRODUCED_97_];
constraint minicpp_bin_packing_load(X_INTRODUCED_77_,items_bin,weights);
solve :: int_search(items_bin,input_order,indomain_min,complete) satisfy;
